0 54 61
1 58 71
2 73 74
3 49 76
4 25 77
5 47 78
6 72 74
7 65 71
8 52 67
9 56 63
10 50 65
11 60 62
12 32 58
13 53 59
14 51 55
15 37 53
16 54 54
17 43 54
18 52 53
19 52 53
20 43 52
21 51 54
22 47 52
23 46 50
24 30 47
25 41 49
26 43 47
27 27 43
28 43 42
29 28 31
30 30 34
31 26 35
32 33 34
33 34 33
34 30 29
35 22 33
36 31 33
37 26 30
38 24 28
39 25 28
40 28 27
41 25 29
42 21 28
43 27 26
44 18 20
45 18 22
46 19 25
47 22 29
48 30 29
49 17 21
50 4 22
51 18 22
52 9 20
53 11 19
54 15 18
55 10 15
56 9 13
57 12 13
58 12 13
59 14 13
60 8 9
61 6 9
62 7 7
63 8 7
64 1 5
65 4 6
66 4 3
67 1 3
68 1 3
69 2 1
70 1 0
71 1 1

